webassembly/ejemplos_dzn/7/folder7_json_34.dzn
TERM = { '.', 's(2)', 's(4)', 'in_1', 'local_0', 'local_1', 's(1)', 's(0)', 's(3)', 'in_0'};
null = '.';
s = 7;
n = 8;
ndeps = 4;
max_registers_sz = 4;
NR = 1;
registers = [|'local_1', 'in_0'|];
dependencies = [|'i32.load8_s_1', 'call[function_index(0)]_2', |'call[function_index(0)]_2', 'i32.load_4', |'i32.store_5', 'i32.load_6', |'i32.load_4', 'i32.store_5'|];
GET_ENUM = { GET1, GET2, GET3, GET4, GET5};
SET_ENUM = { SET1, SET2, SET3, SET4, SET5};
TEE_ENUM = { TEE1, TEE2, TEE3, TEE4, TEE5};
N = 6;
OP = { 'call[function_index(0)]_2', 'i32.load8_s_1', 'i32.load_4', 'i32.store_5', 'i32.load_6', 'local.get_0' };
in_ops = [1, 1, 1, 2, 1, 0 ];
out_ops = [2, 1, 1, 0, 1, 1 ];
in1 = ['s(0)', 'in_1', 'local_0', 's(3)', 's(1)', '.' ];
in2 = ['.', '.', '.', 's(2)', '.', '.' ];
in3 = ['.', '.', '.', '.', '.', '.' ];
out1 = ['s(2)', 's(0)', 's(3)', '.', 's(4)', 'local_0' ];
out2 = ['s(1)', '.', '.', '.', '.', '.' ];
out3 = ['.', '.', '.', '.', '.', '.' ];
comm = [false, false, false, false, false, false ];
gas = [1, 1, 1, 1, 1, 1 ];
sz = [1, 1, 1, 1, 1, 1 ];
stor = [true, false, false, true, false, false ];
lb = [ 1, 1, 1, 1, 1, 1 ];
ub = [ 7, 7, 7, 7, 7, 7 ];
startstack = [ 'in_0', 'in_1', null, null, null, null, null, null ];
endstack = [ 's(4)', null, null, null, null, null, null, null ];
